Normalized Data/p04_26_normalized_splitx10_0.vrp
NAME:p04_26_NORMALIZED_splitx10_
BEST_KNOWN: 0
COMMENT: 0
DIMENSION: 631
CAPACITY: 1000
EDGE_WEIGHT_FORMAT: FUNCTION
EDGE_WEIGHT_TYPE: EXACT_2D
NODE_COORD_SECTION
1 0.00000 0.00000
2 -32 -12
3 -32 -12
4 29 21
5 -3 33
6 -3 33
7 24 -4
8 24 -4
9 24 -4
10 24 -4
11 24 -4
12 -12 9
13 -12 9
14 -12 9
15 -12 9
16 -12 9
17 -12 9
18 -26 -9
19 -26 -9
20 -26 -9
21 -26 -9
22 -26 -9
23 -7 26
24 -7 26
25 -7 26
26 -7 26
27 -7 26
28 -10 50
29 -10 50
30 -10 50
31 -10 50
32 -43 -32
33 -43 -32
34 -43 -32
35 -43 -32
36 -43 -32
37 46 -26
38 46 -26
39 46 -26
40 46 -26
41 46 -26
42 46 -26
43 37 45
44 37 45
45 37 45
46 -38 6
47 -38 6
48 -38 6
49 -7 -48
50 -7 -48
51 -7 -48
52 -7 -48
53 -23 -14
54 -23 -14
55 -23 -14
56 -23 -14
57 -23 -14
58 -23 -14
59 -23 -14
60 -42 30
61 -42 30
62 -42 30
63 -42 37
64 -42 37
65 -42 37
66 -42 37
67 -42 37
68 -28 5
69 -28 5
70 -28 5
71 -28 5
72 5 -49
73 5 -49
74 5 -49
75 5 -49
76 5 -49
77 -28 42
78 -28 42
79 -28 42
80 -28 42
81 -35 -40
82 -35 -40
83 -35 -40
84 -35 -40
85 -35 -40
86 -35 -40
87 1 47
88 1 47
89 1 47
90 1 47
91 1 47
92 46 46
93 46 46
94 46 46
95 46 46
96 46 46
97 46 46
98 33 -8
99 33 -8
100 33 -8
101 -14 39
102 -14 39
103 -14 39
104 -14 39
105 -14 39
106 -14 39
107 15 41
108 15 41
109 15 41
110 15 41
111 15 41
112 15 41
113 -9 38
114 -9 38
115 -9 38
116 -9 38
117 -9 38
118 25 27
119 25 27
120 25 27
121 25 27
122 25 27
123 -28 37
124 -28 37
125 -28 37
126 -28 37
127 46 -40
128 46 -40
129 46 -40
130 46 -40
131 48 24
132 48 24
133 -37 40
134 -37 40
135 -37 40
136 -34 -15
137 -34 -15
138 -34 -15
139 24 16
140 24 16
141 24 16
142 24 16
143 -34 25
144 -34 25
145 -34 25
146 -34 25
147 -46 1
148 -46 1
149 -46 1
150 -46 1
151 -46 1
152 -28 44
153 -28 44
154 -28 44
155 -6 -31
156 -6 -31
157 -6 -31
158 -6 -31
159 45 15
160 45 15
161 45 15
162 45 15
163 -12 -36
164 -12 -36
165 -12 -36
166 -12 -36
167 38 37
168 38 37
169 38 37
170 38 37
171 -45 23
172 -45 23
173 -45 23
174 26 -2
175 26 -2
176 26 -2
177 26 -2
178 -36 41
179 -36 41
180 -36 41
181 -36 41
182 -49 33
183 -49 33
184 -39 23
185 -39 23
186 -39 23
187 -39 23
188 24 -29
189 24 -29
190 24 -29
191 34 -11
192 34 -11
193 34 -11
194 34 -11
195 34 -11
196 34 -11
197 50 40
198 50 40
199 50 40
200 50 40
201 -44 -6
202 -44 -6
203 -44 -6
204 -44 -6
205 -44 -6
206 15 18
207 15 18
208 15 18
209 15 18
210 15 18
211 7 5
212 7 5
213 7 5
214 -27 24
215 -27 24
216 -27 24
217 -27 24
218 -27 24
219 -27 24
220 8 32
221 8 32
222 8 32
223 8 32
224 8 32
225 8 32
226 38 8
227 38 8
228 38 8
229 38 8
230 38 8
231 38 8
232 23 31
233 23 31
234 23 31
235 -35 49
236 -35 49
237 -35 49
238 -35 49
239 42 -15
240 42 -15
241 42 -15
242 42 -15
243 39 -23
244 39 -23
245 32 15
246 32 15
247 44 -40
248 44 -40
249 44 -40
250 -24 22
251 -24 22
252 -20 16
253 -20 16
254 -20 16
255 -20 16
256 -46 3
257 -46 3
258 -46 3
259 -46 3
260 43 -32
261 43 -32
262 43 -32
263 -32 -42
264 -32 -42
265 -32 -42
266 -32 -42
267 31 -16
268 31 -16
269 31 -16
270 31 -16
271 31 -16
272 31 -16
273 -16 -12
274 -16 -12
275 -16 -12
276 -16 -12
277 -16 -12
278 -26 -3
279 -26 -3
280 -26 -3
281 -26 -3
282 7 4
283 7 4
284 7 4
285 7 4
286 39 44
287 39 44
288 39 44
289 39 44
290 39 44
291 -25 -33
292 -25 -33
293 -25 -33
294 -25 -33
295 -25 -33
296 35 -30
297 35 -30
298 35 -30
299 -45 -7
300 -45 -7
301 -45 -7
302 -45 -7
303 -45 -7
304 -45 -7
305 -31 25
306 -31 25
307 -31 25
308 -31 25
309 25 -46
310 25 -46
311 25 -46
312 25 -46
313 25 -46
314 25 -46
315 25 -46
316 16 18
317 16 18
318 16 18
319 16 18
320 -11 47
321 -11 47
322 -11 47
323 18 -43
324 18 -43
325 18 -43
326 -11 44
327 -11 44
328 -11 44
329 -11 44
330 -11 44
331 24 4
332 24 4
333 24 4
334 24 4
335 24 4
336 -25 13
337 -25 13
338 -25 13
339 -25 13
340 -25 13
341 -14 -37
342 -14 -37
343 -14 -37
344 -8 -28
345 -8 -28
346 -8 -28
347 -5 4
348 -5 4
349 -5 4
350 7 -16
351 7 -16
352 7 -16
353 7 -16
354 7 -16
355 7 -16
356 -42 -27
357 -42 -27
358 -42 -27
359 -15 -4
360 -15 -4
361 -15 -4
362 -15 -4
363 -38 -9
364 -38 -9
365 -38 -9
366 -38 -9
367 -38 -9
368 -23 36
369 -23 36
370 -23 36
371 -15 19
372 -15 19
373 -15 19
374 -15 19
375 -15 19
376 -31 28
377 -31 28
378 -31 28
379 -31 28
380 -31 28
381 -48 19
382 -48 19
383 -48 19
384 -48 19
385 -48 19
386 -48 19
387 -48 19
388 -42 18
389 -42 18
390 -42 18
391 -42 18
392 -42 18
393 -42 18
394 30 -5
395 30 -5
396 30 -5
397 30 -5
398 1 -17
399 1 -17
400 1 -17
401 1 -17
402 1 -17
403 -3 -4
404 -3 -4
405 3 -13
406 3 -13
407 3 -13
408 34 20
409 34 20
410 34 20
411 34 20
412 -44 -11
413 -44 -11
414 -44 -11
415 -44 -11
416 -44 -11
417 -43 -14
418 -43 -14
419 -43 -14
420 -43 -14
421 -43 -14
422 29 -27
423 29 -27
424 29 -27
425 29 -27
426 29 -27
427 29 -27
428 29 -27
429 32 -21
430 32 -21
431 32 -21
432 32 -21
433 22 -47
434 22 -47
435 22 -47
436 22 -47
437 22 -47
438 22 -47
439 22 -47
440 32 -38
441 32 -38
442 32 -38
443 -49 -44
444 -49 -44
445 -9 -44
446 -9 -44
447 -9 -44
448 -9 -44
449 -9 -44
450 31 -1
451 31 -1
452 31 -1
453 31 -1
454 31 -1
455 41 -45
456 41 -45
457 41 -45
458 41 -45
459 41 -45
460 41 -45
461 41 -45
462 50 -11
463 50 -11
464 50 -11
465 50 -11
466 50 -11
467 -35 -45
468 -35 -45
469 -35 -45
470 -35 -45
471 -17 3
472 -17 3
473 -17 3
474 -46 -30
475 -46 -30
476 -46 -30
477 -46 -30
478 -26 50
479 -26 50
480 -26 50
481 12 48
482 12 48
483 12 48
484 12 48
485 12 48
486 12 48
487 -7 -14
488 -7 -14
489 -7 -14
490 -7 -14
491 -7 -14
492 -7 -14
493 -39 45
494 19 -41
495 19 -41
496 19 -41
497 19 -41
498 19 -41
499 49 -38
500 49 -38
501 49 -38
502 -3 -25
503 -3 -25
504 -3 -25
505 -31 25
506 -31 25
507 -31 25
508 -31 25
509 26 40
510 26 40
511 26 40
512 26 40
513 -30 -36
514 -30 -36
515 -30 -36
516 -30 -36
517 -30 -36
518 -30 -36
519 4 -20
520 4 -20
521 4 -20
522 4 -20
523 4 -20
524 4 -20
525 -1 35
526 -1 35
527 -1 35
528 -9 -16
529 -9 -16
530 -16 -33
531 -16 -33
532 -16 -33
533 -16 -33
534 36 -20
535 36 -20
536 36 -20
537 36 -20
538 0 33
539 0 33
540 0 33
541 0 33
542 -6 -49
543 -6 -49
544 -6 -49
545 -14 -44
546 -14 -44
547 -14 -44
548 -14 -44
549 -14 -44
550 -14 -44
551 -20 36
552 -20 36
553 -20 36
554 -20 36
555 -43 -15
556 -43 -15
557 -43 -15
558 -33 13
559 -33 13
560 -33 13
561 -33 13
562 -33 13
563 -33 13
564 -33 13
565 -27 41
566 -27 41
567 -27 41
568 -27 41
569 -27 41
570 16 -23
571 16 -23
572 16 -23
573 16 -23
574 16 -23
575 18 4
576 18 4
577 18 4
578 5 -13
579 5 -13
580 5 -13
581 5 -13
582 5 -13
583 -33 -48
584 -33 -48
585 -10 -45
586 -10 -45
587 -10 -45
588 -10 -45
589 -10 -45
590 50 -24
591 50 -24
592 50 -24
593 -27 37
594 -27 37
595 -27 37
596 -27 37
597 -27 37
598 29 -34
599 29 -34
600 50 21
601 50 21
602 50 21
603 50 21
604 50 21
605 37 -35
606 37 -35
607 37 -35
608 37 -35
609 37 -35
610 37 -35
611 16 -20
612 16 -20
613 -8 35
614 -8 35
615 -8 35
616 -8 35
617 -36 35
618 -36 35
619 -36 35
620 -21 -21
621 -21 -21
622 -21 -21
623 -21 -21
624 -21 -21
625 -21 -21
626 -29 32
627 -29 32
628 -29 32
629 11 -18
630 11 -18
631 11 -18
DEMAND_SECTION
1 0
2 200
3 10
4 200
5 200
6 50
7 200
8 100
9 10
10 10
11 10
12 200
13 50
14 10
15 10
16 10
17 10
18 100
19 10
20 10
21 10
22 10
23 200
24 50
25 10
26 10
27 10
28 100
29 10
30 10
31 10
32 200
33 100
34 50
35 10
36 10
37 200
38 200
39 50
40 10
41 10
42 10
43 100
44 50
45 10
46 200
47 10
48 10
49 200
50 10
51 10
52 10
53 200
54 200
55 50
56 10
57 10
58 10
59 10
60 100
61 50
62 10
63 100
64 50
65 10
66 10
67 10
68 200
69 100
70 50
71 10
72 200
73 50
74 10
75 10
76 10
77 100
78 10
79 10
80 10
81 100
82 50
83 10
84 10
85 10
86 10
87 100
88 10
89 10
90 10
91 10
92 200
93 100
94 50
95 10
96 10
97 10
98 200
99 10
100 10
101 200
102 100
103 50
104 10
105 10
106 10
107 200
108 100
109 10
110 10
111 10
112 10
113 200
114 200
115 10
116 10
117 10
118 100
119 10
120 10
121 10
122 10
123 200
124 200
125 50
126 10
127 200
128 200
129 50
130 10
131 200
132 100
133 200
134 200
135 50
136 200
137 10
138 10
139 200
140 100
141 50
142 10
143 200
144 100
145 10
146 10
147 100
148 10
149 10
150 10
151 10
152 200
153 100
154 10
155 200
156 200
157 50
158 10
159 200
160 10
161 10
162 10
163 200
164 200
165 10
166 10
167 200
168 100
169 10
170 10
171 200
172 100
173 10
174 100
175 50
176 10
177 10
178 100
179 10
180 10
181 10
182 200
183 200
184 100
185 10
186 10
187 10
188 200
189 100
190 10
191 200
192 100
193 10
194 10
195 10
196 10
197 200
198 200
199 50
200 10
201 200
202 100
203 10
204 10
205 10
206 200
207 200
208 10
209 10
210 10
211 200
212 200
213 10
214 200
215 100
216 50
217 10
218 10
219 10
220 200
221 100
222 50
223 10
224 10
225 10
226 200
227 100
228 10
229 10
230 10
231 10
232 200
233 100
234 50
235 200
236 10
237 10
238 10
239 200
240 100
241 10
242 10
243 200
244 100
245 200
246 10
247 200
248 200
249 50
250 100
251 50
252 200
253 200
254 10
255 10
256 200
257 200
258 50
259 10
260 200
261 10
262 10
263 100
264 50
265 10
266 10
267 200
268 200
269 50
270 10
271 10
272 10
273 200
274 100
275 50
276 10
277 10
278 100
279 10
280 10
281 10
282 100
283 50
284 10
285 10
286 200
287 100
288 10
289 10
290 10
291 200
292 100
293 50
294 10
295 10
296 100
297 10
298 10
299 200
300 200
301 50
302 10
303 10
304 10
305 200
306 10
307 10
308 10
309 200
310 100
311 50
312 10
313 10
314 10
315 10
316 200
317 200
318 50
319 10
320 100
321 50
322 10
323 100
324 50
325 10
326 200
327 100
328 10
329 10
330 10
331 100
332 10
333 10
334 10
335 10
336 200
337 50
338 10
339 10
340 10
341 200
342 200
343 10
344 200
345 100
346 10
347 200
348 200
349 50
350 100
351 50
352 10
353 10
354 10
355 10
356 200
357 100
358 10
359 100
360 50
361 10
362 10
363 200
364 200
365 10
366 10
367 10
368 200
369 100
370 10
371 200
372 10
373 10
374 10
375 10
376 200
377 50
378 10
379 10
380 10
381 200
382 100
383 50
384 10
385 10
386 10
387 10
388 200
389 50
390 10
391 10
392 10
393 10
394 100
395 10
396 10
397 10
398 100
399 10
400 10
401 10
402 10
403 200
404 100
405 100
406 50
407 10
408 200
409 50
410 10
411 10
412 100
413 50
414 10
415 10
416 10
417 200
418 200
419 10
420 10
421 10
422 200
423 100
424 50
425 10
426 10
427 10
428 10
429 200
430 200
431 10
432 10
433 200
434 200
435 50
436 10
437 10
438 10
439 10
440 200
441 10
442 10
443 200
444 200
445 200
446 200
447 10
448 10
449 10
450 200
451 10
452 10
453 10
454 10
455 200
456 100
457 50
458 10
459 10
460 10
461 10
462 200
463 200
464 50
465 10
466 10
467 100
468 10
469 10
470 10
471 200
472 10
473 10
474 100
475 10
476 10
477 10
478 100
479 50
480 10
481 200
482 200
483 50
484 10
485 10
486 10
487 200
488 200
489 10
490 10
491 10
492 10
493 200
494 200
495 50
496 10
497 10
498 10
499 200
500 100
501 10
502 200
503 200
504 10
505 100
506 50
507 10
508 10
509 200
510 200
511 50
512 10
513 200
514 100
515 50
516 10
517 10
518 10
519 200
520 200
521 10
522 10
523 10
524 10
525 200
526 100
527 50
528 200
529 10
530 200
531 100
532 10
533 10
534 200
535 50
536 10
537 10
538 100
539 50
540 10
541 10
542 200
543 200
544 10
545 200
546 50
547 10
548 10
549 10
550 10
551 200
552 100
553 50
554 10
555 100
556 50
557 10
558 200
559 200
560 50
561 10
562 10
563 10
564 10
565 200
566 200
567 50
568 10
569 10
570 200
571 100
572 50
573 10
574 10
575 200
576 200
577 10
578 200
579 50
580 10
581 10
582 10
583 200
584 100
585 200
586 100
587 50
588 10
589 10
590 200
591 50
592 10
593 100
594 50
595 10
596 10
597 10
598 100
599 50
600 200
601 10
602 10
603 10
604 10
605 200
606 100
607 50
608 10
609 10
610 10
611 200
612 50
613 200
614 200
615 50
616 10
617 100
618 50
619 10
620 200
621 100
622 10
623 10
624 10
625 10
626 200
627 100
628 50
629 200
630 200
631 10
DEPOT_SECTION
1
-1
EOF