Normalized Data/p04_26_normalized_splitx10_0.sol
630 -7 8 9 10 6 173 330 332 334 575 574 576 -13 15 11 12 14 16 254 253 251 252 346 -19 21 17 363 364 365 366 362 2 1 272 276 -24 25 22 5 4 526 524 525 540 538 539 537 -26 23 113 115 112 116 114 612 615 613 614 -38 39 36 41 37 40 591 590 589 240 238 241 98 99 -69 46 45 47 257 258 256 255 150 149 147 148 146 279 278 280 277 -74 73 75 71 72 322 494 493 573 570 571 569 572 -85 83 82 81 84 80 33 35 34 32 31 474 476 473 475 357 356 355 -90 87 88 86 89 481 483 485 484 480 482 219 220 221 224 -100 104 102 105 103 101 321 320 319 27 30 28 29 328 325 326 327 329 -120 118 117 119 121 169 91 94 93 92 96 95 198 196 197 199 -122 124 125 123 592 594 596 595 369 368 551 550 -127 128 129 126 499 498 500 260 259 261 -137 136 135 555 556 554 418 416 420 419 417 18 20 359 361 360 358 -138 139 141 140 3 408 407 410 409 281 282 284 283 -154 156 446 445 447 448 444 585 584 -158 160 159 161 602 600 601 603 599 131 130 245 244 -162 165 163 164 341 342 340 531 530 -167 168 166 286 285 289 288 287 44 42 43 231 -172 171 170 381 386 384 383 385 382 380 391 392 387 390 389 388 -174 175 176 450 451 452 453 449 97 190 191 195 193 394 393 395 396 -178 179 180 177 492 236 237 235 234 478 479 477 367 553 552 -187 189 188 598 597 441 439 440 605 604 -194 192 239 462 461 463 465 464 225 226 227 230 229 228 333 331 -204 203 201 200 202 299 302 303 298 300 301 412 411 413 415 414 -208 206 205 207 209 317 316 318 315 -211 212 210 348 347 -222 223 110 111 109 108 106 107 510 511 509 508 233 232 -249 250 617 133 134 132 626 627 625 -265 263 262 264 582 583 468 466 467 469 443 442 -269 271 270 266 268 267 428 429 431 430 -273 274 275 56 58 53 55 57 52 54 619 622 620 621 624 623 -291 293 294 290 292 514 513 512 515 517 516 532 529 -339 338 337 336 335 215 214 217 213 218 216 370 371 373 372 374 -344 345 343 155 157 501 502 503 -349 350 352 354 351 353 628 629 630 610 611 -376 378 379 377 375 145 144 143 142 504 305 307 507 304 306 506 505 -402 403 528 527 487 491 490 486 488 489 -406 405 404 400 399 398 401 397 522 519 520 518 523 521 577 578 -426 421 422 295 296 297 243 242 533 534 535 536 -427 425 424 423 609 608 606 607 247 246 248 456 458 457 454 455 459 460 -472 471 470 67 68 70 560 561 557 558 559 -497 496 495 313 310 311 308 309 312 314 437 433 438 436 432 435 434 324 323 579 581 580 -543 542 541 48 51 49 50 586 588 587 544 549 548 545 547 546 -563 562 186 184 185 183 61 59 60 181 182 62 65 63 64 66 618 616 -567 566 565 564 568 152 153 151 78 76 79 77 593 0 





OBJ=
4355.281
BEST_KNOWN=
0.000